Problem:    lp_problem
Rows:       147
Columns:    42
Non-zeros:  288
Status:     OPTIMAL
Objective:  totalcost = 4.884981308e-15 (MINimum)

   No.   Row name   St   Activity     Lower bound   Upper bound    Marginal
------ ------------ -- ------------- ------------- ------------- -------------
     1 totalcost    B          -43.2                             
     2 actor_allocation[1]
                    NS             1             1             =         < eps
     3 actor_allocation[2]
                    NS             1             1             =         < eps
     4 primary_pairing[1,1,1,1]
                    B           -1.5                          -1 
     5 primary_pairing[1,1,1,2]
                    B           -1.5                          -1 
     6 primary_pairing[1,1,1,3]
                    B           -1.5                          -1 
     7 primary_pairing[1,1,2,1]
                    B             -1                          -1 
     8 primary_pairing[1,1,2,2]
                    B             -1                          -1 
     9 primary_pairing[1,1,2,3]
                    B             -1                          -1 
    10 primary_pairing[1,1,3,1]
                    B           -1.5                          -1 
    11 primary_pairing[1,1,3,2]
                    B           -1.5                          -1 
    12 primary_pairing[1,1,3,3]
                    B           -1.5                          -1 
    13 primary_pairing[1,2,1,1]
                    B           -1.5                          -1 
    14 primary_pairing[1,2,1,2]
                    B           -1.5                          -1 
    15 primary_pairing[1,2,1,3]
                    B           -1.5                          -1 
    16 primary_pairing[1,2,2,1]
                    B             -1                          -1 
    17 primary_pairing[1,2,2,2]
                    B             -1                          -1 
    18 primary_pairing[1,2,2,3]
                    B             -1                          -1 
    19 primary_pairing[1,2,3,1]
                    B           -1.5                          -1 
    20 primary_pairing[1,2,3,2]
                    B           -1.5                          -1 
    21 primary_pairing[1,2,3,3]
                    B           -1.5                          -1 
    22 primary_pairing[2,1,1,1]
                    B           -1.5                          -1 
    23 primary_pairing[2,1,1,2]
                    B           -1.5                          -1 
    24 primary_pairing[2,1,1,3]
                    B           -1.5                          -1 
    25 primary_pairing[2,1,2,1]
                    B           -1.5                          -1 
    26 primary_pairing[2,1,2,2]
                    B           -1.5                          -1 
    27 primary_pairing[2,1,2,3]
                    B           -1.5                          -1 
    28 primary_pairing[2,1,3,1]
                    B             -1                          -1 
    29 primary_pairing[2,1,3,2]
                    B             -1                          -1 
    30 primary_pairing[2,1,3,3]
                    B             -1                          -1 
    31 primary_pairing[2,2,1,1]
                    B           -1.5                          -1 
    32 primary_pairing[2,2,1,2]
                    B           -1.5                          -1 
    33 primary_pairing[2,2,1,3]
                    B           -1.5                          -1 
    34 primary_pairing[2,2,2,1]
                    B           -1.5                          -1 
    35 primary_pairing[2,2,2,2]
                    B           -1.5                          -1 
    36 primary_pairing[2,2,2,3]
                    B           -1.5                          -1 
    37 primary_pairing[2,2,3,1]
                    B             -1                          -1 
    38 primary_pairing[2,2,3,2]
                    B             -1                          -1 
    39 primary_pairing[2,2,3,3]
                    B             -1                          -1 
    40 secondary_pairing[1,1,1,1]
                    B           -1.5                          -1 
    41 secondary_pairing[1,1,1,2]
                    B             -1                          -1 
    42 secondary_pairing[1,1,1,3]
                    B           -1.5                          -1 
    43 secondary_pairing[1,1,2,1]
                    B           -1.5                          -1 
    44 secondary_pairing[1,1,2,2]
                    B             -1                          -1 
    45 secondary_pairing[1,1,2,3]
                    B           -1.5                          -1 
    46 secondary_pairing[1,1,3,1]
                    B           -1.5                          -1 
    47 secondary_pairing[1,1,3,2]
                    B             -1                          -1 
    48 secondary_pairing[1,1,3,3]
                    B           -1.5                          -1 
    49 secondary_pairing[1,2,1,1]
                    B           -1.5                          -1 
    50 secondary_pairing[1,2,1,2]
                    B           -1.5                          -1 
    51 secondary_pairing[1,2,1,3]
                    B             -1                          -1 
    52 secondary_pairing[1,2,2,1]
                    B           -1.5                          -1 
    53 secondary_pairing[1,2,2,2]
                    B           -1.5                          -1 
    54 secondary_pairing[1,2,2,3]
                    B             -1                          -1 
    55 secondary_pairing[1,2,3,1]
                    B           -1.5                          -1 
    56 secondary_pairing[1,2,3,2]
                    B           -1.5                          -1 
    57 secondary_pairing[1,2,3,3]
                    B             -1                          -1 
    58 secondary_pairing[2,1,1,1]
                    B           -1.5                          -1 
    59 secondary_pairing[2,1,1,2]
                    B             -1                          -1 
    60 secondary_pairing[2,1,1,3]
                    B           -1.5                          -1 
    61 secondary_pairing[2,1,2,1]
                    B           -1.5                          -1 
    62 secondary_pairing[2,1,2,2]
                    B             -1                          -1 
    63 secondary_pairing[2,1,2,3]
                    B           -1.5                          -1 
    64 secondary_pairing[2,1,3,1]
                    B           -1.5                          -1 
    65 secondary_pairing[2,1,3,2]
                    B             -1                          -1 
    66 secondary_pairing[2,1,3,3]
                    B           -1.5                          -1 
    67 secondary_pairing[2,2,1,1]
                    B           -1.5                          -1 
    68 secondary_pairing[2,2,1,2]
                    B           -1.5                          -1 
    69 secondary_pairing[2,2,1,3]
                    B             -1                          -1 
    70 secondary_pairing[2,2,2,1]
                    B           -1.5                          -1 
    71 secondary_pairing[2,2,2,2]
                    B           -1.5                          -1 
    72 secondary_pairing[2,2,2,3]
                    B             -1                          -1 
    73 secondary_pairing[2,2,3,1]
                    B           -1.5                          -1 
    74 secondary_pairing[2,2,3,2]
                    B           -1.5                          -1 
    75 secondary_pairing[2,2,3,3]
                    B             -1                          -1 
    76 sum_pairing[1,1,1,1]
                    NU             2                           2         < eps
    77 sum_pairing[1,1,1,2]
                    B            1.5                           2 
    78 sum_pairing[1,1,1,3]
                    B              2                           2 
    79 sum_pairing[1,1,2,1]
                    B            1.5                           2 
    80 sum_pairing[1,1,2,2]
                    B              1                           2 
    81 sum_pairing[1,1,2,3]
                    B            1.5                           2 
    82 sum_pairing[1,1,3,1]
                    B              2                           2 
    83 sum_pairing[1,1,3,2]
                    B            1.5                           2 
    84 sum_pairing[1,1,3,3]
                    NU             2                           2         < eps
    85 sum_pairing[1,2,1,1]
                    B              2                           2 
    86 sum_pairing[1,2,1,2]
                    B              2                           2 
    87 sum_pairing[1,2,1,3]
                    B            1.5                           2 
    88 sum_pairing[1,2,2,1]
                    B            1.5                           2 
    89 sum_pairing[1,2,2,2]
                    B            1.5                           2 
    90 sum_pairing[1,2,2,3]
                    B              1                           2 
    91 sum_pairing[1,2,3,1]
                    B              2                           2 
    92 sum_pairing[1,2,3,2]
                    B              2                           2 
    93 sum_pairing[1,2,3,3]
                    B            1.5                           2 
    94 sum_pairing[2,1,1,1]
                    B              2                           2 
    95 sum_pairing[2,1,1,2]
                    B            1.5                           2 
    96 sum_pairing[2,1,1,3]
                    B              2                           2 
    97 sum_pairing[2,1,2,1]
                    NU             2                           2         < eps
    98 sum_pairing[2,1,2,2]
                    B            1.5                           2 
    99 sum_pairing[2,1,2,3]
                    B              2                           2 
   100 sum_pairing[2,1,3,1]
                    B            1.5                           2 
   101 sum_pairing[2,1,3,2]
                    B              1                           2 
   102 sum_pairing[2,1,3,3]
                    B            1.5                           2 
   103 sum_pairing[2,2,1,1]
                    B              2                           2 
   104 sum_pairing[2,2,1,2]
                    B              2                           2 
   105 sum_pairing[2,2,1,3]
                    B            1.5                           2 
   106 sum_pairing[2,2,2,1]
                    NU             2                           2         < eps
   107 sum_pairing[2,2,2,2]
                    B              2                           2 
   108 sum_pairing[2,2,2,3]
                    B            1.5                           2 
   109 sum_pairing[2,2,3,1]
                    B            1.5                           2 
   110 sum_pairing[2,2,3,2]
                    B            1.5                           2 
   111 sum_pairing[2,2,3,3]
                    B              1                           2 
   112 non_overlap[1,1,1,1]
                    B              0            -0             = 
   113 non_overlap[1,1,1,2]
                    B              0            -0             = 
   114 non_overlap[1,1,1,3]
                    B              0            -0             = 
   115 non_overlap[1,1,2,1]
                    B              0            -0             = 
   116 non_overlap[1,1,2,2]
                    B              0            -0             = 
   117 non_overlap[1,1,2,3]
                    B              0            -0             = 
   118 non_overlap[1,1,3,1]
                    B              0            -0             = 
   119 non_overlap[1,1,3,2]
                    B              0            -0             = 
   120 non_overlap[1,1,3,3]
                    B              0            -0             = 
   121 non_overlap[1,2,1,1]
                    B              0            -0             = 
   122 non_overlap[1,2,1,2]
                    B              0            -0             = 
   123 non_overlap[1,2,1,3]
                    B              0            -0             = 
   124 non_overlap[1,2,2,1]
                    B              0            -0             = 
   125 non_overlap[1,2,2,2]
                    B              0            -0             = 
   126 non_overlap[1,2,2,3]
                    B              0            -0             = 
   127 non_overlap[1,2,3,1]
                    B              0            -0             = 
   128 non_overlap[1,2,3,2]
                    B              0            -0             = 
   129 non_overlap[1,2,3,3]
                    B              0            -0             = 
   130 non_overlap[2,1,1,1]
                    B              0            -0             = 
   131 non_overlap[2,1,1,2]
                    B              0            -0             = 
   132 non_overlap[2,1,1,3]
                    B              0            -0             = 
   133 non_overlap[2,1,2,1]
                    B              0            -0             = 
   134 non_overlap[2,1,2,2]
                    B              0            -0             = 
   135 non_overlap[2,1,2,3]
                    B              0            -0             = 
   136 non_overlap[2,1,3,1]
                    B              0            -0             = 
   137 non_overlap[2,1,3,2]
                    B              0            -0             = 
   138 non_overlap[2,1,3,3]
                    B              0            -0             = 
   139 non_overlap[2,2,1,1]
                    B              0            -0             = 
   140 non_overlap[2,2,1,2]
                    B              0            -0             = 
   141 non_overlap[2,2,1,3]
                    B              0            -0             = 
   142 non_overlap[2,2,2,1]
                    B              0            -0             = 
   143 non_overlap[2,2,2,2]
                    B              0            -0             = 
   144 non_overlap[2,2,2,3]
                    B              0            -0             = 
   145 non_overlap[2,2,3,1]
                    B              0            -0             = 
   146 non_overlap[2,2,3,2]
                    B              0            -0             = 
   147 non_overlap[2,2,3,3]
                    B              0            -0             = 

   No. Column name  St   Activity     Lower bound   Upper bound    Marginal
------ ------------ -- ------------- ------------- ------------- -------------
     1 x[1,1]       B            0.5             0             1 
     2 x[1,2]       B              0             0             1 
     3 x[1,3]       B            0.5             0             1 
     4 x[2,1]       B            0.5             0             1 
     5 x[2,2]       B            0.5             0             1 
     6 x[2,3]       B              0             0             1 
     7 z[1,1,1,1]   NU             1             0             1          -1.2 
     8 z[1,1,1,2]   NU             1             0             1          -1.2 
     9 z[1,1,1,3]   NU             1             0             1          -1.2 
    10 z[1,1,2,1]   NU             1             0             1          -1.2 
    11 z[1,1,2,2]   NU             1             0             1          -1.2 
    12 z[1,1,2,3]   NU             1             0             1          -1.2 
    13 z[1,1,3,1]   NU             1             0             1          -1.2 
    14 z[1,1,3,2]   NU             1             0             1          -1.2 
    15 z[1,1,3,3]   NU             1             0             1          -1.2 
    16 z[1,2,1,1]   NU             1             0             1          -1.2 
    17 z[1,2,1,2]   NU             1             0             1          -1.2 
    18 z[1,2,1,3]   NU             1             0             1          -1.2 
    19 z[1,2,2,1]   NU             1             0             1          -1.2 
    20 z[1,2,2,2]   NU             1             0             1          -1.2 
    21 z[1,2,2,3]   NU             1             0             1          -1.2 
    22 z[1,2,3,1]   NU             1             0             1          -1.2 
    23 z[1,2,3,2]   NU             1             0             1          -1.2 
    24 z[1,2,3,3]   NU             1             0             1          -1.2 
    25 z[2,1,1,1]   NU             1             0             1          -1.2 
    26 z[2,1,1,2]   NU             1             0             1          -1.2 
    27 z[2,1,1,3]   NU             1             0             1          -1.2 
    28 z[2,1,2,1]   NU             1             0             1          -1.2 
    29 z[2,1,2,2]   NU             1             0             1          -1.2 
    30 z[2,1,2,3]   NU             1             0             1          -1.2 
    31 z[2,1,3,1]   NU             1             0             1          -1.2 
    32 z[2,1,3,2]   NU             1             0             1          -1.2 
    33 z[2,1,3,3]   NU             1             0             1          -1.2 
    34 z[2,2,1,1]   NU             1             0             1          -1.2 
    35 z[2,2,1,2]   NU             1             0             1          -1.2 
    36 z[2,2,1,3]   NU             1             0             1          -1.2 
    37 z[2,2,2,1]   NU             1             0             1          -1.2 
    38 z[2,2,2,2]   NU             1             0             1          -1.2 
    39 z[2,2,2,3]   NU             1             0             1          -1.2 
    40 z[2,2,3,1]   NU             1             0             1          -1.2 
    41 z[2,2,3,2]   NU             1             0             1          -1.2 
    42 z[2,2,3,3]   NU             1             0             1          -1.2 

Karush-Kuhn-Tucker optimality conditions:

KKT.PE: max.abs.err = 2.66e-15 on row 1
        max.rel.err = 3.05e-17 on row 1
        High quality

KKT.PB: max.abs.err = 0.00e+00 on row 0
        max.rel.err = 0.00e+00 on row 0
        High quality

KKT.DE: max.abs.err = 0.00e+00 on column 0
        max.rel.err = 0.00e+00 on column 0
        High quality

KKT.DB: max.abs.err = 0.00e+00 on row 0
        max.rel.err = 0.00e+00 on row 0
        High quality

End of output
